100 100 100
50
49 35 44
85 92 19
25 3 8
79 83 92
96 56 80
48 38 36
16 35 33
16 8 37
97 31 82
50 69 57
85 65 50
17 4 3
48 27 22
11 9 33
33 46 12
6 3 43
25 100 80
90 70 22
32 36 16
8 20 23
98 60 85
47 45 14
4 38 10
2 45 8
40 15 5
87 35 79
34 31 38
90 33 99
88 6 89
95 92 50
11 22 41
41 10 19
14 39 20
28 2 45
16 43 19
8 47 8
4 8 3
78 93 43
97 20 83
1 40 43
92 92 35
45 41 1
80 84 44
45 19 34
66 73 46
67 8 78
74 21 71
17 18 4
16 16 27
6 13 4
